7487
7510
7296
7445
7459
7606
7400
7389
7484
7346
7433
7373
7520
7462
7461
7379
7489
7476
7513
7241
7420
7417
7469
7440
7434
7339
7400
7320
7535
7464
7355
7340
7493
7467
7503
7441
7524
7389
7455
7365
7322
7374
7379
7309
7420
7398
7494
7565
7269
7473
7468
7364
7448
7534
7323
7421
7318
7468
7526
7300
7443
7331
7460
7399
7389
7426
7388
7465
7339
7316
7440
7498
7480
7446
7429
7442
7401
7341
7502
7440
7406
7563
7335
7488
7570
7324
7374
7403
7433
7486
7447
7495
7314
7184
7560
7422
7486
7464
7355
7503
